(declare-fun a65 () (Array (_ BitVec 10) (_ BitVec 9)))
(assert
(let (($e11 (_ bv3 6)))
(let (($e22 (_ bv3 8)))
(let (($e31 (_ bv3 3)))
(let (($e46 (_ bv3 13)))
(let (($e453 ((_ extract 11 2) $e46 )))
(let (($e454 (select a65   $e453)))
(let (($e693 (   extract      $e454)))
(let (($e698 (concat $e22 $e693)))
(let (($e701 (bvand        $e698         $e454 )))
(let (($e702 (concat $e31 $e11)))
(let (($e703 (bvand $e702 $e701)))
             (ite        $e693  $e701 $e703)
                                                                                                                                                                                                                                                                                                                                                                                                                                                                                                                                                                                                                                                                                                                                                                                                                                                                                                                                                                                                                                                                                                                                                                                                                                                                                                                                                                                                                                                                                                                                                                                                                                                                                                                                                                                                                                                                                                                                                                                                                                                                                                                                                                                                                                                                                                                                                                                                                                                                                                                                                                                                                                                                                                                                                                                                                                                                                                                                                                                                                                                                                                                                )))  )    )                                                                                                                                                                                                                                              ))                                                                                                                                                                                                                                                                                                                                                                                                        )              )        )          )          )
